certificates/rado_a9_c15_N28.cnf
c Rad2 upper bound instance: x1 + 9*x2 - x3 = 15, interval [1,28]
p cnf 28 140
1 2 4 0
-1 -2 -4 0
1 3 13 0
-1 -3 -13 0
1 4 22 0
-1 -4 -22 0
2 5 0
-2 -5 0
2 3 14 0
-2 -3 -14 0
2 4 23 0
-2 -4 -23 0
2 3 6 0
-2 -3 -6 0
3 15 0
-3 -15 0
3 4 24 0
-3 -4 -24 0
2 4 7 0
-2 -4 -7 0
3 4 16 0
-3 -4 -16 0
4 25 0
-4 -25 0
2 5 8 0
-2 -5 -8 0
3 5 17 0
-3 -5 -17 0
4 5 26 0
-4 -5 -26 0
2 6 9 0
-2 -6 -9 0
3 6 18 0
-3 -6 -18 0
4 6 27 0
-4 -6 -27 0
1 7 0
-1 -7 0
2 7 10 0
-2 -7 -10 0
3 7 19 0
-3 -7 -19 0
4 7 28 0
-4 -7 -28 0
1 2 8 0
-1 -2 -8 0
2 8 11 0
-2 -8 -11 0
3 8 20 0
-3 -8 -20 0
1 3 9 0
-1 -3 -9 0
2 9 12 0
-2 -9 -12 0
3 9 21 0
-3 -9 -21 0
1 4 10 0
-1 -4 -10 0
2 10 13 0
-2 -10 -13 0
3 10 22 0
-3 -10 -22 0
1 5 11 0
-1 -5 -11 0
2 11 14 0
-2 -11 -14 0
3 11 23 0
-3 -11 -23 0
1 6 12 0
-1 -6 -12 0
2 12 15 0
-2 -12 -15 0
3 12 24 0
-3 -12 -24 0
1 7 13 0
-1 -7 -13 0
2 13 16 0
-2 -13 -16 0
3 13 25 0
-3 -13 -25 0
1 8 14 0
-1 -8 -14 0
2 14 17 0
-2 -14 -17 0
3 14 26 0
-3 -14 -26 0
1 9 15 0
-1 -9 -15 0
2 15 18 0
-2 -15 -18 0
3 15 27 0
-3 -15 -27 0
1 10 16 0
-1 -10 -16 0
2 16 19 0
-2 -16 -19 0
3 16 28 0
-3 -16 -28 0
1 11 17 0
-1 -11 -17 0
2 17 20 0
-2 -17 -20 0
1 12 18 0
-1 -12 -18 0
2 18 21 0
-2 -18 -21 0
1 13 19 0
-1 -13 -19 0
2 19 22 0
-2 -19 -22 0
1 14 20 0
-1 -14 -20 0
2 20 23 0
-2 -20 -23 0
1 15 21 0
-1 -15 -21 0
2 21 24 0
-2 -21 -24 0
1 16 22 0
-1 -16 -22 0
2 22 25 0
-2 -22 -25 0
1 17 23 0
-1 -17 -23 0
2 23 26 0
-2 -23 -26 0
1 18 24 0
-1 -18 -24 0
2 24 27 0
-2 -24 -27 0
1 19 25 0
-1 -19 -25 0
2 25 28 0
-2 -25 -28 0
1 20 26 0
-1 -20 -26 0
1 21 27 0
-1 -21 -27 0
1 22 28 0
-1 -22 -28 0
