certificates/rado_a9_c15_N28.drat
2 4 0
d 2 1 4 0
-25 -28 0
-28 0
-2 -4 0
d -2 -1 -4 0
-4 0
25 0
7 0
2 0
-22 0
-1 0
-10 0
-5 0
0
